p cnf 45 138
1 2 3 0
-1 -2 0
-1 -3 0
-2 -3 0
4 5 6 0
-4 -5 0
-4 -6 0
-5 -6 0
7 8 9 0
-7 -8 0
-7 -9 0
-8 -9 0
10 11 12 0
-10 -11 0
-10 -12 0
-11 -12 0
13 14 15 0
-13 -14 0
-13 -15 0
-14 -15 0
16 17 18 0
-16 -17 0
-16 -18 0
-17 -18 0
19 20 21 0
-19 -20 0
-19 -21 0
-20 -21 0
22 23 24 0
-22 -23 0
-22 -24 0
-23 -24 0
25 26 27 0
-25 -26 0
-25 -27 0
-26 -27 0
28 29 30 0
-28 -29 0
-28 -30 0
-29 -30 0
31 32 33 0
-31 -32 0
-31 -33 0
-32 -33 0
34 35 36 0
-34 -35 0
-34 -36 0
-35 -36 0
37 38 39 0
-37 -38 0
-37 -39 0
-38 -39 0
40 41 42 0
-40 -41 0
-40 -42 0
-41 -42 0
43 44 45 0
-43 -44 0
-43 -45 0
-44 -45 0
-1 -7 0
-2 -8 0
-3 -9 0
-1 -16 0
-2 -17 0
-3 -18 0
-1 -19 0
-2 -20 0
-3 -21 0
-1 -34 0
-2 -35 0
-3 -36 0
-1 -37 0
-2 -38 0
-3 -39 0
-4 -7 0
-5 -8 0
-6 -9 0
-4 -10 0
-5 -11 0
-6 -12 0
-4 -16 0
-5 -17 0
-6 -18 0
-4 -22 0
-5 -23 0
-6 -24 0
-7 -10 0
-8 -11 0
-9 -12 0
-7 -13 0
-8 -14 0
-9 -15 0
-7 -25 0
-8 -26 0
-9 -27 0
-7 -31 0
-8 -32 0
-9 -33 0
-10 -13 0
-11 -14 0
-12 -15 0
-10 -22 0
-11 -23 0
-12 -24 0
-10 -28 0
-11 -29 0
-12 -30 0
-10 -31 0
-11 -32 0
-12 -33 0
-10 -43 0
-11 -44 0
-12 -45 0
-16 -19 0
-17 -20 0
-18 -21 0
-19 -25 0
-20 -26 0
-21 -27 0
-19 -28 0
-20 -29 0
-21 -30 0
-19 -37 0
-20 -38 0
-21 -39 0
-19 -40 0
-20 -41 0
-21 -42 0
-19 -43 0
-20 -44 0
-21 -45 0
-22 -34 0
-23 -35 0
-24 -36 0
-34 -40 0
-35 -41 0
-36 -42 0
